
Maximize
 obj: 1 x_16

Subject To
 r_1: - x_7 + x_2 + x_1 = 0
 r_2: - x_8 + x_3 + x_7 = 0
 r_3: - x_9 + x_5 + x_4 = 0
 r_4: - x_10 + x_6 + x_9 = 0
 r_5: - x_11 - x_2 + x_3 = 0
 r_6: - x_12 + 0.2 x_11 >= 0
 r_7: - x_12 - 0.2 x_5 + 0.4 x_11 >= -0.08
 r_8: - x_12 - 0.2 x_5 + 0.2 x_11 <= -0.04
 r_9: - x_12 + 0.4 x_11 <= 0
 r_10: - x_13 + x_6 = 1
 r_11: - x_14 + x_2 = 1
 r_12: - x_15 - 0.7 x_13 - 0.7 x_14 >= 0.49
 r_13: - x_15 - 0.8 x_13 - 0.5 x_14 >= 0.4
 r_14: - x_15 - 0.8 x_13 - 0.7 x_14 <= 0.56
 r_15: - x_15 - 0.7 x_13 - 0.5 x_14 <= 0.35
 r_16: - x_16 - x_12 + x_15 = 0

Bounds
 0.6 <= x_1 <= 0.7
 0.2 <= x_2 <= 0.3
 0.1 <= x_3 <= 0.2
 0.1 <= x_4 <= 0.4
 0.2 <= x_5 <= 0.4
 0.3 <= x_6 <= 0.5
 0.8 <= x_7 <= 1
 x_8 = 1
 0.3 <= x_9 <= 0.8
 x_10 = 1
 -0.2 <= x_11 <= 0
 -0.08 <= x_12 <= 0
 -0.7 <= x_13 <= -0.5
 -0.8 <= x_14 <= -0.7
 0.35 <= x_15 <= 0.56
 0.35 <= x_16 <= 0.64

End
